FLOW,10,5,7
1,70,0,45,3,51,4,12,2,20
0,83,1,84,2,21,3,80,4,6
0,1,1,85,2,77,3,79,4,93
1,24,0,16,4,90,2,12,3,57
0,10,1,48,4,84,2,66,3,57
0,34,1,53,3,3,4,98,2,58
1,58,0,1,3,28,2,36,4,78
0,3,1,11,2,74,4,87,3,98
0,4,1,35,4,8,3,61,2,19
0,1,1,85,4,27,2,16,3,42
